S = 6;
start = [|33,0,0,0,0,0,0,26,0,29,0,30,0,0,0,0,0,0,14,0,0,16,18,0,0,0,0,0,0,0,0,0,0,4,5,0|
0,0,0,13,0,18,21,0,19,0,0,0,2,0,0,5,1,0,0,0,0,10,12,9,0,0,29,0,0,28,0,31,30,0,32,0|
0,0,0,0,0,0,0,0,0,11,0,0,0,0,0,0,0,0,0,35,0,0,0,0,0,0,0,0,0,0,0,0,0,0,23,0|
0,0,28,0,0,0,0,0,31,35,34,0,14,0,0,0,0,0,20,0,0,0,24,0,0,6,0,0,0,0,0,0,0,0,0,9|
0,23,0,0,0,24,0,0,0,17,16,0,0,10,0,11,7,0,0,0,1,0,0,0,0,0,0,0,0,33,26,0,0,35,0,0|
0,0,0,0,0,0,0,0,0,0,0,0,0,34,0,0,31,33,0,0,0,0,0,0,0,0,0,0,19,0,0,0,0,16,0,0|
0,0,23,0,0,21,0,0,0,20,0,0,5,0,0,0,6,12,0,0,4,0,0,2,29,33,0,26,28,0,0,0,0,0,0,0|
0,8,0,4,3,0,0,0,0,10,0,0,27,0,0,32,28,0,0,0,0,0,0,0,15,0,14,0,0,0,0,0,0,23,0,24|
0,0,0,0,0,0,24,0,0,22,0,0,0,1,0,0,0,2,0,10,6,0,0,0,32,30,36,0,0,0,0,0,33,0,0,0|
0,10,0,0,5,0,0,0,0,8,1,0,0,0,0,0,0,0,27,32,28,25,31,0,0,21,24,0,0,0,0,0,0,13,0,14|
0,0,0,0,0,0,36,29,30,0,0,33,0,0,19,0,0,14,17,0,18,23,0,0,3,0,2,0,4,0,6,0,0,0,0,0|
36,0,0,30,0,33,26,27,0,0,0,0,0,0,21,0,18,0,15,20,0,13,19,0,0,9,0,0,0,0,4,0,0,0,0,0|
13,0,14,0,0,20,0,0,0,0,0,0,4,0,8,0,0,1,0,0,0,0,0,0,0,0,0,0,0,31,0,0,35,0,0,0|
0,21,24,0,0,0,0,0,15,0,0,20,0,0,0,0,0,11,0,0,3,0,8,0,0,0,0,0,0,0,36,28,0,0,0,0|
0,0,0,27,0,0,35,0,29,0,0,34,0,0,0,0,0,0,0,0,0,24,22,23,0,8,0,2,0,0,5,0,0,0,0,0|
0,0,0,5,0,0,0,0,0,7,0,0,30,36,0,0,0,0,0,31,27,0,32,0,0,22,0,0,0,0,0,0,0,14,19,0|
0,0,0,3,0,0,0,0,0,0,0,10,0,0,32,0,0,25,0,33,0,0,0,35,0,0,0,14,0,0,17,0,22,24,0,0|
0,0,36,29,0,0,25,28,0,0,0,0,0,0,0,0,17,23,0,0,0,0,0,0,0,0,0,0,0,9,0,0,0,0,0,0|
0,0,0,8,0,0,0,0,0,0,3,0,0,0,0,0,0,34,25,0,26,0,29,28,0,0,0,21,0,24,0,13,0,15,18,0|
0,0,0,0,0,0,22,19,0,0,0,0,0,0,5,6,0,0,7,12,8,0,0,0,28,0,0,0,0,0,0,0,0,30,0,0|
0,0,21,0,0,0,0,13,0,0,15,17,0,0,0,0,8,0,1,6,0,0,5,0,0,0,0,30,27,0,29,0,28,0,0,0|
4,0,0,0,0,0,10,0,0,0,9,11,0,0,29,0,0,28,0,0,32,0,35,34,0,0,0,0,0,0,0,0,0,0,0,0|
0,0,0,0,25,0,0,31,32,0,0,0,13,15,0,0,0,0,0,24,0,0,23,0,0,0,0,0,0,6,8,7,0,0,0,0|
0,0,0,0,0,0,28,0,0,0,0,0,0,0,0,0,0,22,13,0,0,0,0,0,0,0,0,0,0,0,0,1,0,0,0,0|
0,0,0,0,10,0,0,0,0,0,0,0,0,0,0,0,0,0,36,27,0,32,0,31,0,14,17,0,0,0,0,24,0,0,15,0|
0,0,0,0,0,28,29,0,0,25,0,26,0,20,0,15,23,19,22,0,0,0,0,0,12,0,7,0,11,3,0,0,2,0,1,0|
0,25,0,0,34,0,0,0,0,27,0,0,0,0,0,0,21,17,0,0,0,0,0,0,0,2,0,0,9,0,0,0,0,0,0,0|
0,13,0,0,0,14,19,0,0,0,20,16,0,0,0,0,9,0,12,0,0,0,0,0,0,0,0,0,0,0,30,0,0,0,31,35|
0,15,0,0,0,0,0,0,0,0,0,0,12,0,4,0,0,0,10,0,0,0,0,0,0,0,32,35,30,29,0,0,0,28,0,34|
0,0,0,11,0,0,0,0,0,0,6,0,0,0,0,27,35,0,0,0,0,0,0,0,24,16,19,0,23,15,0,0,0,18,0,0|
0,0,31,0,35,0,0,0,0,0,0,0,0,0,15,16,0,0,0,0,0,0,13,0,0,0,0,0,0,0,10,0,1,0,2,6|
0,0,0,0,11,0,6,0,0,2,0,0,0,0,0,0,0,0,0,26,34,0,0,30,0,0,0,19,0,0,22,0,13,17,0,18|
0,0,0,0,9,0,8,11,12,0,0,0,33,0,0,0,0,30,0,0,0,0,0,0,21,13,0,0,0,0,0,23,0,0,0,0|
20,0,19,24,0,15,0,0,0,14,17,0,0,0,0,0,12,0,0,2,0,0,0,0,0,36,0,28,0,0,35,0,25,29,0,0|
0,0,0,22,0,0,0,0,24,16,0,15,0,0,0,0,0,0,0,4,12,0,3,0,35,27,0,32,0,0,0,0,0,31,0,36|
0,0,29,0,0,0,0,0,36,28,31,0,0,0,0,14,0,0,0,0,0,19,0,0,0,0,6,5,0,0,0,0,0,0,0,0|];